peakDumbCharging = 11100; 
Machine = anon_enum(16); 
machineSpeed = [3700,3700,3700,3700,3700,3700,3700,3700,3700,3700,3700,3700,3700,3700,3700,3700]; 
machineLoad = [3700,3700,3700,3700,3700,3700,3700,3700,3700,3700,3700,3700,3700,3700,3700,3700]; 
Car = anon_enum(18); 
demandCar = [8680,14400,2120,1040,15840,5240,8720,14720,880,2320,360,5680,15880,2120,6040,3360,1800,7600]; 
arrivalCar = [77,67,67,64,61,58,57,56,54,53,49,47,47,47,42,39,35,26]; 
departureCar = [81,72,69,66,67,63,62,64,55,55,50,52,55,49,46,46,37,30]; 
